713893
13,194,165,14,110,120,8,97,220,30,15,138,3,69,226,177,51,98,42,160,113,73,122,152,191,126,209,218,206,70,86,119,114,10,201,198,200,65,154,164,214,46,197,143,11,58,139,57,76,174,29,193,195,84,95,79,167,85,188,124,181,136,173,131,148,182,61,123,25,80,132,149,158,77,222,128,141,24,66,216,100,53,92,18,56,54,175,105,202,99,190,219,106,41,121,180,82,2,115,52,221,59,213,93,168,172,204,45,212,230,104,103,187,12,146,88,109,90,186,171,150,170,142,228,4,21,217,153,129,33,224,38,203,6,68,9,166,101,161,205,75,215,130,81,40,27,169,102,112,155,133,229,94,108,50,28,151,35,87,62,55,78,34,37,192,179,196,107,89,116,184,96,91,144,26,22,117,20,183,210,7,36,1,63,72,162,135,83,140,71,49,118,32,163,178,127,147,67,207,39,74,157,43,31,199,23,159,208,185,189,16,60,137,64,44,5,145,211,156,223,176,17,47,225,48,111,19,125,227,134